Data path: /scratch/opt/lxu/CFLG/benchmarks/tree_B
Instance: treeB.700.35
Result path: /scratch/opt/lxu/CFLG/results/tree_B
Solver: Gurobi
Time limit: 7200
Formulation: LEFPA
Cover: Large
julia --project=. src/main.jl /scratch/opt/lxu/CFLG/benchmarks/tree_B treeB.700.35 /scratch/opt/lxu/CFLG/results/tree_B Gurobi 7200 LEFPA Large
The latest version of Julia in the `release` channel is 1.11.5+0.x64.linux.gnu. You currently have `1.11.4+0.x64.linux.gnu` installed. Run:

  juliaup update

in your terminal shell to install Julia 1.11.5+0.x64.linux.gnu and update the `release` channel to that version.
/scratch/opt/lxu/CFLG/benchmarks/tree_B Gurobi 7200.0 /scratch/opt/lxu/CFLG/results/tree_B treeB.700.35 LEFPA Large
/scratch/opt/lxu/CFLG/benchmarks/tree_B/treeB.700.35

 read graph
data loaded

problem_graph/original graph: node: 700/700 edge: 734/734 dlt: 2.9997419292633585 break_avg_len: 1.4998709646316792 break_max_len: 1.9999766211030285Vbar/V, Ebar/E(192, 700, 226, 734)
Set parameter TokenServer to value "solice01.zib.de"
Set parameter Threads to value 1
Set parameter OutputFlag to value 1
Gurobi Optimizer version 12.0.1 build v12.0.1rc0 (linux64 - "Debian GNU/Linux 12 (bookworm)")

CPU model: Intel(R) Xeon(R) Gold 5122 CPU @ 3.60GHz, instruction set [SSE2|AVX|AVX2|AVX512]
Thread count: 8 physical cores, 16 logical processors, using up to 1 threads

Non-default parameters:
Threads  1

Optimize a model with 610 rows, 966 columns and 1610 nonzeros
Model fingerprint: 0x6af02287
Coefficient statistics:
  Matrix range     [1e+00, 1e+00]
  Objective range  [1e+00, 1e+00]
  Bounds range     [1e+00, 1e+00]
  RHS range        [1e+00, 1e+00]
Presolve removed 610 rows and 966 columns
Presolve time: 0.00s
Presolve: All rows and columns removed
Iteration    Objective       Primal Inf.    Dual Inf.      Time
       0    9.6000000e+01   0.000000e+00   0.000000e+00      0s

Solved in 0 iterations and 0.00 seconds (0.00 work units)
Optimal objective  9.600000000e+01

User-callback calls 35, time in user-callback 0.00 sec
elapsed CPU time: 1.503761 seconds
Set parameter TokenServer to value "solice01.zib.de"
Set parameter Threads to value 1
Set parameter OutputFlag to value 1
Set parameter MIPGap to value 0.0001
Set parameter MIPGapAbs to value 0.999998
Set parameter TimeLimit to value 7198.496239

 more cuts: false 2.9997419292633585 false
is_attach:trueformulation:LEFPA0 322 0

 model loaded

Gurobi Optimizer version 12.0.1 build v12.0.1rc0 (linux64 - "Debian GNU/Linux 12 (bookworm)")

CPU model: Intel(R) Xeon(R) Gold 5122 CPU @ 3.60GHz, instruction set [SSE2|AVX|AVX2|AVX512]
Thread count: 8 physical cores, 16 logical processors, using up to 1 threads

Non-default parameters:
TimeLimit  7198.496239
MIPGapAbs  0.999998
Threads  1

Optimize a model with 8878 rows, 5247 columns and 24324 nonzeros
Model fingerprint: 0x48000415
Variable types: 932 continuous, 4315 integer (4315 binary)
Coefficient statistics:
  Matrix range     [1e-06, 6e+00]
  Objective range  [1e+00, 1e+00]
  Bounds range     [4e-03, 3e+00]
  RHS range        [1e-06, 6e+00]
Presolve removed 5867 rows and 3187 columns
Presolve time: 0.14s
Presolved: 3011 rows, 2060 columns, 12449 nonzeros
Variable types: 382 continuous, 1678 integer (1678 binary)
Found heuristic solution: objective 352.0000000
Found heuristic solution: objective 345.0000000
Found heuristic solution: objective 274.0000000

Root relaxation: objective 1.673807e+02, 1783 iterations, 0.02 seconds (0.02 work units)

    Nodes    |    Current Node    |     Objective Bounds      |     Work
 Expl Unexpl |  Obj  Depth IntInf | Incumbent    BestBd   Gap | It/Node Time

     0     0  167.38074    0  462  274.00000  167.38074  38.9%     -    0s
H    0     0                     266.0000000  167.38074  37.1%     -    0s
H    0     0                     217.0000000  167.38074  22.9%     -    0s
H    0     0                     206.0000000  167.38074  18.7%     -    0s
H    0     0                     205.0000000  167.38074  18.4%     -    0s
     0     0  176.79590    0  461  205.00000  176.79590  13.8%     -    0s
     0     0  176.94235    0  438  205.00000  176.94235  13.7%     -    0s
     0     0  176.94235    0  443  205.00000  176.94235  13.7%     -    0s
     0     0  180.97833    0  449  205.00000  180.97833  11.7%     -    0s
     0     0  181.21675    0  404  205.00000  181.21675  11.6%     -    0s
     0     0  181.23271    0  416  205.00000  181.23271  11.6%     -    0s
     0     0  181.24726    0  426  205.00000  181.24726  11.6%     -    0s
     0     0  181.24726    0  430  205.00000  181.24726  11.6%     -    0s
     0     0  183.67902    0  384  205.00000  183.67902  10.4%     -    0s
     0     0  183.68023    0  377  205.00000  183.68023  10.4%     -    0s
     0     0  183.96800    0  355  205.00000  183.96800  10.3%     -    0s
     0     0  184.00134    0  369  205.00000  184.00134  10.2%     -    0s
     0     0  184.00481    0  336  205.00000  184.00481  10.2%     -    0s
     0     0  184.03524    0  391  205.00000  184.03524  10.2%     -    0s
H    0     0                     204.0000000  184.03524  9.79%     -    0s
H    0     0                     202.0000000  184.03524  8.89%     -    0s
H    0     0                     201.0000000  184.03524  8.44%     -    0s
H    0     0                     198.0000000  184.03524  7.05%     -    0s
     0     0  184.03582    0  400  198.00000  184.03582  7.05%     -    0s
     0     0  184.04627    0  392  198.00000  184.04627  7.05%     -    0s
H    0     0                     195.0000000  184.04627  5.62%     -    0s
     0     0  184.22822    0  394  195.00000  184.22822  5.52%     -    0s
     0     0  184.22822    0  387  195.00000  184.22822  5.52%     -    0s
     0     0  184.67549    0  363  195.00000  184.67549  5.29%     -    0s
     0     0  184.68810    0  368  195.00000  184.68810  5.29%     -    0s
     0     0  184.68810    0  367  195.00000  184.68810  5.29%     -    0s
     0     0  184.68810    0  398  195.00000  184.68810  5.29%     -    0s
H    0     0                     194.0000000  184.68810  4.80%     -    0s
     0     0  184.68810    0  402  194.00000  184.68810  4.80%     -    0s
     0     0  184.68810    0  392  194.00000  184.68810  4.80%     -    0s
     0     0  184.77143    0  135  194.00000  184.77143  4.76%     -    0s
H    0     0                     191.0000000  184.95000  3.17%     -    0s
H    0     0                     190.0000000  184.95000  2.66%     -    0s
     0     2  185.35476    0  135  190.00000  185.35476  2.44%     -    0s

Cutting planes:
  Learned: 3
  Gomory: 35
  Lift-and-project: 20
  Cover: 51
  Implied bound: 18
  Projected implied bound: 1
  Clique: 3
  MIR: 24
  StrongCG: 9
  Flow cover: 63
  GUB cover: 32
  Zero half: 21
  RLT: 11
  Relax-and-lift: 12
  BQP: 9

Explored 643 nodes (43478 simplex iterations) in 3.72 seconds (2.36 work units)
Thread count was 1 (of 16 available processors)

Solution count 10: 190 190 191 ... 204

Optimal solution found (tolerance 1.00e-04)
Best objective 1.900000000000e+02, best bound 1.900000000000e+02, gap 0.0000%

User-callback calls 4194, time in user-callback 0.00 sec

 sepatime0 0 0
190.0Stat(MathOptInterface.OPTIMAL, 190.0, 190.0, 0.0, 0.0, 1.503761, 3.7164909839630127, 643, Main.CFLG.LEFPA, "", #undef)
ERROR: LoadError: SystemError: opening file "/scratch/opt/lxu/CFLG/results/tree_B/treeB.700.35.LEFPA.Large": No such file or directory
Stacktrace:
 [1] systemerror(p::String, errno::Int32; extrainfo::Nothing)
   @ Base ./error.jl:176
 [2] systemerror
   @ ./error.jl:175 [inlined]
 [3] open(fname::String; lock::Bool, read::Nothing, write::Nothing, create::Nothing, truncate::Bool, append::Nothing)
   @ Base ./iostream.jl:295
 [4] open
   @ ./iostream.jl:277 [inlined]
 [5] open(fname::String, mode::String; lock::Bool)
   @ Base ./iostream.jl:358
 [6] open
   @ ./iostream.jl:357 [inlined]
 [7] main(args::Vector{String})
   @ Main /scratch/opt/lxu/CFLG/src/main.jl:51
 [8] top-level scope
   @ /scratch/opt/lxu/CFLG/src/main.jl:57
in expression starting at /scratch/opt/lxu/CFLG/src/main.jl:57
srun: error: htc-cmp465: task 0: Exited with exit code 1
